output [show(zone_forme[1])," ",show(rotation_forme[1]),"\n",show(zone_forme[2])," ",show(rotation_forme[2]),"\n",show(zone_forme[3])," ",show(rotation_forme[3]),"\n",show(zone_forme[4])," ",show(rotation_forme[4]),"\n"];
array [1..4] of int: zone_forme;
array [1..4] of int: rotation_forme;
